* ENCODING=ISO-8859-1
NAME          CPLEX
ROWS
 N  obj1    
 G  c1      
 G  c2      
 G  c3      
 G  c4      
 G  c5      
 G  c6      
 G  c7      
 G  c8      
 G  c9      
 G  c10     
 G  c11     
 G  c12     
 G  c13     
 G  c14     
 G  c15     
 G  c16     
 G  c17     
 G  c18     
 G  c19     
 G  c20     
 G  c21     
 G  c22     
 G  c23     
 G  c24     
 G  c25     
COLUMNS
    MARK0000  'MARKER'                 'INTORG'
    x1        obj1                            1
    x1        c21                           628
    x2        obj1                            1
    x2        c16                           780
    x3        obj1                            1
    x3        c24                           599
    x4        obj1                            1
    x4        c7                            515
    x4        c22                           816
    x5        obj1                            1
    x5        c3                            790
    x5        c22                           552
    x6        obj1                            1
    x6        c5                            939
    x6        c16                           680
    x7        obj1                            1
    x8        obj1                            1
    x8        c12                           558
    x8        c17                           992
    x9        obj1                            1
    x9        c12                           416
    x9        c24                           635
    x10       obj1                            1
    x10       c5                            883
    x10       c9                            928
    x11       obj1                            1
    x11       c3                            607
    x11       c12                           154
    x11       c14                           946
    x11       c23                           281
    x12       obj1                            1
    x12       c15                           363
    x12       c21                           620
    x13       obj1                            1
    x14       obj1                            1
    x14       c8                            797
    x14       c9                            671
    x14       c20                           777
    x15       obj1                            1
    x15       c3                            196
    x15       c5                            462
    x15       c8                            310
    x15       c9                            184
    x15       c19                           209
    x16       obj1                            1
    x16       c1                            195
    x16       c13                           708
    x16       c18                           707
    x16       c23                           198
    x17       obj1                            1
    x17       c1                            839
    x17       c2                            531
    x17       c7                            465
    x17       c13                           857
    x18       obj1                            1
    x18       c6                            727
    x18       c13                           646
    x18       c23                           119
    x19       obj1                            1
    x19       c6                            476
    x19       c10                           405
    x20       obj1                            1
    x20       c6                            541
    x20       c18                           982
    x21       obj1                            1
    x21       c12                           962
    x22       obj1                            1
    x22       c4                            935
    x22       c11                           269
    x22       c15                           865
    x23       obj1                            1
    x23       c5                            163
    x23       c8                            706
    x23       c13                           567
    x24       obj1                            1
    x24       c5                            413
    x24       c9                            754
    x24       c16                           656
    x24       c20                           723
    x25       obj1                            1
    x25       c6                            632
    x25       c16                           675
    x26       obj1                            1
    x26       c7                            616
    x26       c17                           419
    x27       obj1                            1
    x27       c1                            785
    x27       c4                            366
    x27       c15                           834
    x27       c19                           951
    x28       obj1                            1
    x28       c2                            410
    x28       c7                            284
    x28       c11                           726
    x29       obj1                            1
    x29       c1                            336
    x29       c14                           100
    x29       c23                           371
    x29       c24                           230
    x30       obj1                            1
    x30       c3                            420
    x30       c22                           638
    x31       obj1                            1
    x32       obj1                            1
    x33       obj1                            1
    x33       c15                           153
    x34       obj1                            1
    x34       c1                            900
    x34       c12                           422
    x35       obj1                            1
    x35       c2                            157
    x35       c11                           606
    x35       c12                           350
    x35       c17                           807
    x35       c18                           477
    x35       c23                           864
    x36       obj1                            1
    x37       obj1                            1
    x37       c15                           842
    x37       c24                           252
    x38       obj1                            1
    x38       c1                            767
    x38       c2                            593
    x38       c5                            972
    x38       c10                           588
    x39       obj1                            1
    x40       obj1                            1
    x40       c7                            101
    x40       c8                            900
    x40       c9                            803
    x41       obj1                            1
    x41       c4                            577
    x41       c8                            673
    x41       c13                           325
    x41       c15                           515
    x41       c18                           376
    x42       obj1                            1
    x42       c14                           920
    x42       c25                           430
    x43       obj1                            1
    x43       c1                            658
    x43       c7                            300
    x43       c10                           482
    x43       c20                           121
    x43       c22                           322
    x43       c23                           489
    x44       obj1                            1
    x44       c5                            524
    x44       c10                           798
    x44       c21                           164
    x45       obj1                            1
    x45       c25                           785
    x46       obj1                            1
    x46       c10                           263
    x46       c18                           983
    x46       c25                           167
    x47       obj1                            1
    x47       c21                           757
    x48       obj1                            1
    x48       c7                            130
    x48       c15                           253
    x48       c19                           948
    x49       obj1                            1
    x49       c12                           505
    x49       c20                           727
    x50       obj1                            1
    x50       c8                            299
    x50       c17                           579
    x50       c22                           196
    MARK0001  'MARKER'                 'INTEND'
RHS
    rhs       c1                           2240
    rhs       c2                            846
    rhs       c3                           1007
    rhs       c4                            939
    rhs       c5                           2178
    rhs       c6                           1188
    rhs       c7                           1206
    rhs       c8                           1843
    rhs       c9                           1670
    rhs       c10                          1268
    rhs       c11                           801
    rhs       c12                          1684
    rhs       c13                          1552
    rhs       c14                           983
    rhs       c15                          1913
    rhs       c16                          1396
    rhs       c17                          1399
    rhs       c18                          1763
    rhs       c19                          1054
    rhs       c20                          1174
    rhs       c21                          1085
    rhs       c22                          1262
    rhs       c23                          1161
    rhs       c24                           858
    rhs       c25                           691
BOUNDS
 LI bnd       x1        0
 LI bnd       x2        0
 LI bnd       x3        0
 LI bnd       x4        0
 LI bnd       x5        0
 LI bnd       x6        0
 LI bnd       x7        0
 LI bnd       x8        0
 LI bnd       x9        0
 LI bnd       x10       0
 LI bnd       x11       0
 LI bnd       x12       0
 LI bnd       x13       0
 LI bnd       x14       0
 LI bnd       x15       0
 LI bnd       x16       0
 LI bnd       x17       0
 LI bnd       x18       0
 LI bnd       x19       0
 LI bnd       x20       0
 LI bnd       x21       0
 LI bnd       x22       0
 LI bnd       x23       0
 LI bnd       x24       0
 LI bnd       x25       0
 LI bnd       x26       0
 LI bnd       x27       0
 LI bnd       x28       0
 LI bnd       x29       0
 LI bnd       x30       0
 LI bnd       x31       0
 LI bnd       x32       0
 LI bnd       x33       0
 LI bnd       x34       0
 LI bnd       x35       0
 LI bnd       x36       0
 LI bnd       x37       0
 LI bnd       x38       0
 LI bnd       x39       0
 LI bnd       x40       0
 LI bnd       x41       0
 LI bnd       x42       0
 LI bnd       x43       0
 LI bnd       x44       0
 LI bnd       x45       0
 LI bnd       x46       0
 LI bnd       x47       0
 LI bnd       x48       0
 LI bnd       x49       0
 LI bnd       x50       0
ENDATA
